19
0 4 5 6 7 11 12 15 16 17
1 5 6 7 9 10 12 13 14 16
2 4 6 11 12 16 18
3 4 5 7 8 9 11 13 16 17
4 0 2 3 6 8 9 14 15 16 17
5 0 1 3 8 10 11 12 15 16 17
6 0 1 2 4 8 11 13 16 17 18
7 0 1 3 10 12 15 16 17 18
8 3 4 5 6 9 11 13 14 16 17 18
9 1 3 4 8 10 12 13 15 17
10 1 5 7 9 13 15
11 0 2 3 5 6 8 14 17
12 0 1 2 5 7 9 13 15 16 17 18
13 1 3 6 8 9 10 12 16
14 1 4 8 11 16
15 0 4 5 7 9 10 12
16 0 1 2 3 4 5 6 7 8 12 13 14 17
17 0 3 4 5 6 7 8 9 11 12 16
18 2 6 7 8 12
